Problem:    
Rows:       105
Columns:    45 (34 integer, 34 binary)
Non-zeros:  302
Status:     INTEGER OPTIMAL
Objective:  value = 10.27099 (MINimum)

   No.   Row name        Activity     Lower bound   Upper bound
------ ------------    ------------- ------------- -------------
     1 r.5                   2010.27             0               
     2 r.6                  -1991.01      -1998.65               
     3 r.7                    10.271             0               
     4 r.8                    10.271      -1994.47               
     5 r.9                   2010.27             0               
     6 r.10                 -1992.36      -1997.28               
     7 r.11                   10.271             0               
     8 r.12                   4.7367      -1994.22               
     9 r.13                  2010.27             0               
    10 r.14                 -1995.08      -1999.37               
    11 r.15                   10.271             0               
    12 r.16                 -1.04258      -1999.03               
    13 r.17                  2010.27             0               
    14 r.18                 -1989.73      -1998.72               
    15 r.19                   10.271             0               
    16 r.20                 -1985.59      -1998.06               
    17 r.21                  2010.27             0               
    18 r.22                  -1999.9       -1999.9               
    19 r.23                   10.271             0               
    20 r.24                   0.1021      -1998.62               
    21 r.25                        1             1             = 
    22 r.26                        1             1             = 
    23 r.27                        1             1             = 
    24 r.28                        1             1             = 
    25 r.29                        1             1             = 
    26 r.30                  1998.65        2.7209               
    27 r.31                 -1998.65      -1998.65               
    28 r.32                  1994.47       5.77929               
    29 r.33                 -1994.47      -1994.47               
    30 r.34                  1995.93        0.6299               
    31 r.35                 -1995.93      -1998.65               
    32 r.36                  1988.69         0.974               
    33 r.37                 -1988.69      -1994.47               
    34 r.38                   1.2798        1.2798               
    35 r.39                  -1.2798      -1998.65               
    36 r.40                  4.14137       1.93541               
    37 r.41                 -4.14137      -1994.47               
    38 r.42                 -1991.11      -1994.46               
    39 r.43                  10.1689      -1982.09               
    40 r.44                 -1991.11      -1994.46               
    41 r.45                  10.1689      -1982.09               
    42 r.46                   1.3472        1.3472               
    43 r.47                  -1.3472      -1997.28               
    44 r.48                  5.53429       5.53429               
    45 r.49                 -5.53429      -1994.22               
    46 r.50                  1997.28        0.6299               
    47 r.51                 -1997.28      -1997.28               
    48 r.52                  1994.22         0.974               
    49 r.53                 -1994.22      -1994.22               
    50 r.54                    2.627        1.2798               
    51 r.55                   -2.627      -1997.28               
    52 r.56                  9.67566       1.93541               
    53 r.57                 -9.67566      -1994.22               
    54 r.58                 -1992.46      -1993.09               
    55 r.59                   4.6346      -1981.85               
    56 r.60                 -1992.46      -1993.09               
    57 r.61                   4.6346      -1981.85               
    58 r.62                   4.0681        1.3472               
    59 r.63                  -4.0681      -1999.37               
    60 r.64                  11.3136       5.53429               
    61 r.65                 -11.3136      -1999.03               
    62 r.66                   2.7209        2.7209               
    63 r.67                  -2.7209      -1999.37               
    64 r.68                  5.77929       5.77929               
    65 r.69                 -5.77929      -1999.03               
    66 r.70                   5.3479        1.2798               
    67 r.71                  -5.3479      -1999.37               
    68 r.72                  15.4549       1.93541               
    69 r.73                 -15.4549      -1999.03               
    70 r.74                 -1995.18      -1995.18               
    71 r.75                 -1.14468      -1986.65               
    72 r.76                 -1995.18      -1995.18               
    73 r.77                 -1.14468      -1986.65               
    74 r.78                  1998.72        1.3472               
    75 r.79                 -1998.72      -1998.72               
    76 r.80                  1995.86       5.53429               
    77 r.81                 -1995.86      -1998.06               
    78 r.82                  1997.37        2.7209               
    79 r.83                 -1997.37      -1998.72               
    80 r.84                  1990.32       5.77929               
    81 r.85                 -1990.32      -1998.06               
    82 r.86                  1994.65        0.6299               
    83 r.87                 -1994.65      -1998.72               
    84 r.88                  1984.55         0.974               
    85 r.89                 -1984.55      -1998.06               
    86 r.90                 -1989.83      -1994.53               
    87 r.91                 -1985.69      -1985.69               
    88 r.92                 -1989.83      -1994.53               
    89 r.93                 -1985.69      -1985.69               
    90 r.94                 -1991.11      -1994.46               
    91 r.95                  10.1689      -1982.09               
    92 r.96                 -1991.11      -1994.46               
    93 r.97                  10.1689      -1982.09               
    94 r.98                 -1992.46      -1993.09               
    95 r.99                   4.6346      -1981.85               
    96 r.100                -1992.46      -1993.09               
    97 r.101                  4.6346      -1981.85               
    98 r.102                -1995.18      -1995.18               
    99 r.103                -1.14468      -1986.65               
   100 r.104                -1995.18      -1995.18               
   101 r.105                -1.14468      -1986.65               
   102 r.106                -1989.83      -1994.53               
   103 r.107                -1985.69      -1985.69               
   104 r.108                -1989.83      -1994.53               
   105 r.109                -1985.69      -1985.69               

   No. Column name       Activity     Lower bound   Upper bound
------ ------------    ------------- ------------- -------------
     1 tt                     10.271             0               
     2 s_1_1        *              1             0             1 
     3 t_1_1                  1.2798             0               
     4 s_2_1        *              0             0             1 
     5 t_2_1                       0             0               
     6 s_1_2        *              1             0             1 
     7 t_1_2                   2.627             0               
     8 s_2_2        *              0             0             1 
     9 t_2_2                 5.53429             0               
    10 s_1_3        *              1             0             1 
    11 t_1_3                  5.3479             0               
    12 s_2_3        *              0             0             1 
    13 t_2_3                 11.3136             0               
    14 s_1_4        *              1             0             1 
    15 t_1_4                       0             0               
    16 s_2_4        *              0             0             1 
    17 t_2_4                 1995.86             0               
    18 s_1_5        *              1             0             1 
    19 t_1_5                 10.1689             0               
    20 s_2_5        *              0             0             1 
    21 t_2_5                 10.1689             0               
    22 u_1_1_2      *              1             0             1 
    23 u_2_1_2      *              1             0             1 
    24 u_1_1_3      *              1             0             1 
    25 u_2_1_3      *              1             0             1 
    26 u_1_1_4      *              0             0             1 
    27 u_2_1_4      *              1             0             1 
    28 u_1_2_1      *              0             0             1 
    29 u_2_2_1      *              0             0             1 
    30 u_1_2_3      *              1             0             1 
    31 u_2_2_3      *              1             0             1 
    32 u_1_2_4      *              0             0             1 
    33 u_2_2_4      *              1             0             1 
    34 u_1_3_1      *              0             0             1 
    35 u_2_3_1      *              0             0             1 
    36 u_1_3_2      *              0             0             1 
    37 u_2_3_2      *              0             0             1 
    38 u_1_3_4      *              0             0             1 
    39 u_2_3_4      *              1             0             1 
    40 u_1_4_1      *              1             0             1 
    41 u_2_4_1      *              0             0             1 
    42 u_1_4_2      *              1             0             1 
    43 u_2_4_2      *              0             0             1 
    44 u_1_4_3      *              1             0             1 
    45 u_2_4_3      *              0             0             1 

Integer feasibility conditions:

KKT.PE: max.abs.err = 0.00e+00 on row 0
        max.rel.err = 0.00e+00 on row 0
        High quality

KKT.PB: max.abs.err = 4.73e-14 on row 34
        max.rel.err = 2.07e-14 on row 34
        High quality

End of output
